SYSTEM = B.hR105 with PBE0/HSE06

 Global Settings
   LHFCALC  = .TRUE. # Use hybrid functionals
   HFSCREEN = 0.2    # Use HSE06
   ISMEAR   = 1      # first order Methfessel-Paxton
   SIGMA    = 0.2    # broadening (default)
   LREAL    = A      # evaluate projection operators in real space 
   ENCUT    = 319

 Discretization
   PREC     = Normal # Normal defaults
   PRECFOCK = Normal # Normal defaults for HF
   NKRED    = 1      # Use every k-point in HF
   NBANDS   = 224  # For consistency; default = 210

 Electronic Relaxation
   ALGO   = Normal # Use Conjugate Gradient to allow HF-calcs
   EDIFF  = 0      # stopping-criterion for ELM
   NELM   = 30     # maximum number of electronic SC steps
   NELMDL = 5
 Ionic Relaxation
   NSW    = 1    # maximum number of ionic steps 
   ISIF   = 2    # calculate/relax/change everything
   IBRION = 2    # ion update algorithm (2 = CG)
   POTIM  = 0.25 # force scaling constant (think relaxation)

 Input/Output
   ISTART = 0 # Start from scratch
   LWAVE  = F # Don't store the WAVECAR
   LCHARG = F # Don't store the CHGCAR


 Tunable parameters
   NCORE = 40
   NSIM  = 4
