SYSTEM = TiO2_Surface

ISTART = 0
LWAVE  = F
LCHARG = F

#Electronic Relaxation
PREC = Accurate
ENCUT = 450
NELM   = 30
NELMDL = 5
EDIFF  = 1E-10

#Ionic Relaxation
NSW    = 0
IBRION = 2
ISIF   = 2
ISYM   = 0

#DOS related values:
ISMEAR =  0
SIGMA  =  0.1

#Electronic Relaxation
ALGO   = Fast
LREAL  = A
ISPIN  = 2

#Tunable parameters
NCORE = 40
NSIM = 4

