 O Ti 
 1.0000000000000000
    22.2656574800000016    0.0000000000000000    0.0000000000000000
    11.8743338119796373   18.8350656897807802    0.0000000000000000
   -17.0699956474364427   -9.4175328456884948   10.7556881097194008
   O  Ti
 256 128
Direct
  0.3015407500000000  0.8015407500000000  0.7500000000000000
  0.6984592500000001  0.4484592500000000  0.7500000000000000
  0.7390407500000002  0.3640407500000000  0.8750000000000000
  0.5515407500000000  0.3015407500000000  0.5000000000000000
  0.6359592500000002  0.2609592500000000  0.6250000000000000
  0.6984592500000001  0.4484592500000000  0.5000000000000000
  0.7390407500000000  0.3640407500000001  0.6250000000000000
  0.5515407500000000  0.3015407500000000  0.2500000000000000
  0.6359592500000002  0.2609592500000000  0.3750000000000000
  0.6984592500000001  0.4484592500000000  0.2500000000000000
  0.7390407500000000  0.3640407500000000  0.3750000000000000
  0.5515407500000000  0.3015407500000000  0.0000000000000000
  0.6359592500000002  0.2609592500000000  0.1250000000000000
  0.6984592500000001  0.4484592500000000  0.0000000000000000
  0.7390407500000000  0.3640407500000001  0.1250000000000000
  0.5515407500000000  0.0515407500000000  0.7500000000000000
  0.6359592500000000  0.2609592500000000  0.8750000000000000
  0.6359592500000001  0.0109592500000000  0.8750000000000000
  0.5515407500000000  0.3015407500000000  0.7500000000000000
  0.6984592500000001  0.6984592500000001  0.0000000000000000
  0.7390407499999999  0.8640407500000000  0.1250000000000000
  0.5515407500000000  0.5515407500000000  0.7500000000000000
  0.6359592500000001  0.5109592500000000  0.8750000000000000
  0.6984592500000001  0.6984592500000000  0.7500000000000000
  0.7390407499999999  0.6140407500000000  0.8750000000000000
  0.5515407500000000  0.5515407500000000  0.5000000000000000
  0.6359592500000001  0.5109592500000000  0.6250000000000000
  0.6984592500000001  0.6984592500000001  0.5000000000000000
  0.7390407499999999  0.6140407500000000  0.6250000000000000
  0.5515407500000000  0.5515407500000000  0.2500000000000000
  0.6359592500000001  0.5109592500000000  0.3750000000000000
  0.6984592500000001  0.6984592500000000  0.2500000000000000
  0.7390407499999999  0.6140407500000000  0.3750000000000000
  0.5515407500000000  0.5515407500000000  0.0000000000000000
  0.6359592500000000  0.5109592500000001  0.1250000000000000
  0.7390407499999999  0.6140407500000000  0.1250000000000000
  0.6984592500000001  0.1984592500000000  0.7500000000000000
  0.7390407499999999  0.1140407500000000  0.8750000000000000
  0.5515407500000000  0.0515407500000000  0.5000000000000000
  0.3859592500000000  0.7609592500000001  0.3750000000000000
  0.4484592500000000  0.9484592500000001  0.2500000000000000
  0.4890407500000000  0.8640407500000000  0.3750000000000000
  0.3015407500000000  0.8015407500000001  0.0000000000000000
  0.3859592500000000  0.7609592500000001  0.1250000000000000
  0.4484592500000000  0.9484592500000001  0.0000000000000000
  0.4890407500000000  0.8640407500000000  0.1250000000000000
  0.3015407500000000  0.5515407500000000  0.7500000000000000
  0.3859592500000001  0.5109592500000000  0.8750000000000000
  0.4484592500000001  0.6984592500000000  0.7500000000000000
  0.4890407500000001  0.6140407500000000  0.8750000000000000
  0.3015407500000000  0.5515407500000000  0.5000000000000000
  0.3859592500000001  0.5109592500000000  0.6250000000000000
  0.4484592500000000  0.6984592500000001  0.5000000000000000
  0.4890407500000001  0.6140407500000000  0.6250000000000000
  0.3015407499999999  0.8015407500000000  0.2500000000000000
  0.4890407499999999  0.8640407500000001  0.6250000000000000
  0.4484592500000000  0.9484592500000001  0.5000000000000000
  0.3859592500000000  0.7609592500000001  0.6250000000000000
  0.6359592500000001  0.0109592500000000  0.6250000000000000
  0.6984592500000001  0.1984592500000000  0.5000000000000000
  0.7390407499999999  0.1140407500000000  0.6250000000000000
  0.5515407500000000  0.0515407500000000  0.2500000000000000
  0.6359592500000001  0.0109592500000000  0.3750000000000000
  0.6984592500000001  0.1984592500000000  0.2500000000000000
  0.7390407499999999  0.1140407500000000  0.3750000000000000
  0.6984592500000000  0.9484592500000001  0.0000000000000000
  0.5515407500000000  0.0515407500000000  0.0000000000000000
  0.6984592500000001  0.1984592500000000  0.0000000000000000
  0.7390407499999999  0.1140407500000000  0.1250000000000000
  0.8859592500000000  0.7609592500000001  0.8750000000000000
  0.3859592500000000  0.7609592500000001  0.8750000000000000
  0.4484592500000000  0.9484592500000001  0.7500000000000000
  0.4890407499999999  0.8640407500000001  0.8750000000000000
  0.3015407500000000  0.8015407500000001  0.5000000000000000
  0.6359592500000001  0.0109592500000000  0.1250000000000000
  0.3015407500000000  0.5515407500000000  0.2500000000000000
  0.6359592499999999  0.7609592500000001  0.1250000000000000
  0.7390407499999999  0.8640407500000000  0.3750000000000000
  0.8859592500000002  0.5109592500000000  0.6250000000000000
  0.9484592500000001  0.6984592500000001  0.5000000000000000
  0.9890407500000001  0.6140407500000000  0.6250000000000000
  0.8015407500000001  0.5515407500000000  0.2500000000000000
  0.8859592500000002  0.5109592500000000  0.3750000000000000
  0.9484592500000001  0.6984592500000000  0.2500000000000000
  0.9890407500000001  0.6140407500000000  0.3750000000000000
  0.8015407500000001  0.5515407500000000  0.0000000000000000
  0.8859592500000001  0.5109592500000001  0.1250000000000000
  0.9484592500000001  0.6984592500000001  0.0000000000000000
  0.9890407500000001  0.6140407500000000  0.1250000000000000
  0.8015407500000001  0.3015407500000000  0.7500000000000000
  0.8859592500000001  0.2609592500000000  0.8750000000000000
  0.9484592500000001  0.4484592500000000  0.7500000000000000
  0.9890407500000001  0.3640407500000000  0.8750000000000000
  0.8015407500000001  0.5515407500000000  0.5000000000000000
  0.8015407499999999  0.3015407500000000  0.5000000000000000
  0.9890407500000001  0.6140407500000000  0.8750000000000000
  0.8859592500000002  0.5109592500000000  0.8750000000000000
  0.9484592500000003  0.9484592500000001  0.7500000000000000
  0.9890407499999999  0.8640407500000001  0.8750000000000000
  0.8015407500000001  0.8015407500000001  0.5000000000000000
  0.8859592500000000  0.7609592500000001  0.6250000000000000
  0.9484592500000003  0.9484592500000001  0.5000000000000000
  0.9890407499999999  0.8640407500000001  0.6250000000000000
  0.8015407500000001  0.8015407500000000  0.2500000000000000
  0.8859592500000000  0.7609592500000001  0.3750000000000000
  0.9484592500000003  0.9484592500000001  0.2500000000000000
  0.9890407500000001  0.8640407500000000  0.3750000000000000
  0.8015407500000001  0.8015407500000001  0.0000000000000000
  0.8859592500000000  0.7609592500000001  0.1250000000000000
  0.9484592500000000  0.9484592500000001  0.0000000000000000
  0.9890407500000001  0.8640407500000000  0.1250000000000000
  0.8015407500000001  0.5515407500000000  0.7500000000000000
  0.9484592500000001  0.6984592500000000  0.7500000000000000
  0.8859592500000000  0.2609592500000000  0.6250000000000000
  0.9484592500000001  0.4484592500000000  0.5000000000000000
  0.9890407499999999  0.3640407500000001  0.6250000000000000
  0.8015407499999999  0.0515407500000000  0.0000000000000000
  0.8859592500000001  0.0109592500000000  0.1250000000000000
  0.9484592500000001  0.1984592500000000  0.0000000000000000
  0.9890407500000001  0.1140407500000000  0.1250000000000000
  0.5515407499999999  0.8015407500000000  0.7500000000000000
  0.6359592499999999  0.7609592500000001  0.8750000000000000
  0.6984592500000000  0.9484592500000001  0.7500000000000000
  0.7390407499999998  0.8640407500000001  0.8750000000000000
  0.5515407499999999  0.8015407500000001  0.5000000000000000
  0.6359592499999999  0.7609592500000001  0.6250000000000000
  0.6984592500000000  0.9484592500000001  0.5000000000000000
  0.7390407499999998  0.8640407500000001  0.6250000000000000
  0.5515407499999999  0.8015407500000000  0.2500000000000000
  0.6359592499999999  0.7609592500000001  0.3750000000000000
  0.6984592500000000  0.9484592500000001  0.2500000000000000
  0.9890407500000001  0.1140407500000000  0.3750000000000000
  0.9484592500000001  0.1984592500000000  0.2500000000000000
  0.8859592500000001  0.0109592500000000  0.3750000000000000
  0.8015407499999999  0.0515407500000000  0.2500000000000000
  0.8015407500000001  0.3015407500000000  0.2500000000000000
  0.8859592500000000  0.2609592500000000  0.3750000000000000
  0.9484592500000001  0.4484592500000000  0.2500000000000000
  0.9890407499999999  0.3640407500000000  0.3750000000000000
  0.8015407499999999  0.3015407500000000  0.0000000000000000
  0.8859592500000000  0.2609592500000000  0.1250000000000000
  0.9484592500000001  0.4484592500000000  0.0000000000000000
  0.5515407499999999  0.8015407500000001  0.0000000000000000
  0.9890407499999999  0.3640407500000001  0.1250000000000000
  0.8859592500000001  0.0109592500000000  0.8750000000000000
  0.9484592500000001  0.1984592500000000  0.7500000000000000
  0.9890407500000001  0.1140407500000000  0.8750000000000000
  0.8015407499999999  0.0515407500000000  0.5000000000000000
  0.8859592500000001  0.0109592500000000  0.6250000000000000
  0.9484592500000001  0.1984592500000000  0.5000000000000000
  0.9890407500000001  0.1140407500000000  0.6250000000000000
  0.8015407499999999  0.0515407500000000  0.7500000000000000
  0.3859592500000001  0.5109592500000000  0.3750000000000000
  0.8015407500000001  0.8015407500000000  0.7500000000000000
  0.4890407500000001  0.6140407500000000  0.3750000000000000
  0.1984592499999999  0.9484592500000001  0.0000000000000000
  0.2390407500000000  0.8640407500000000  0.1250000000000000
  0.0515407500000000  0.5515407500000000  0.7500000000000000
  0.1359592500000000  0.5109592500000000  0.8750000000000000
  0.1984592500000000  0.6984592500000000  0.7500000000000000
  0.2390407499999999  0.6140407500000000  0.8750000000000000
  0.4484592500000001  0.6984592500000000  0.2500000000000000
  0.0515407500000000  0.5515407500000000  0.5000000000000000
  0.1984592499999999  0.6984592500000001  0.5000000000000000
  0.2390407499999999  0.6140407500000000  0.6250000000000000
  0.0515407500000000  0.5515407500000000  0.2500000000000000
  0.1359592500000000  0.5109592500000000  0.3750000000000000
  0.1984592500000000  0.6984592500000000  0.2500000000000000
  0.2390407499999999  0.6140407500000000  0.3750000000000000
  0.1359592500000000  0.5109592500000000  0.6250000000000000
  0.0515407500000000  0.5515407500000000  0.0000000000000000
  0.0515407499999999  0.8015407500000001  0.0000000000000000
  0.1984592499999999  0.9484592500000001  0.2500000000000000
  0.3015407500000000  0.0515407500000000  0.0000000000000000
  0.3859592500000001  0.0109592500000000  0.1250000000000000
  0.4484592500000001  0.1984592500000000  0.0000000000000000
  0.4890407500000000  0.1140407500000000  0.1250000000000000
  0.0515407500000000  0.8015407500000000  0.7500000000000000
  0.1359592500000000  0.7609592500000001  0.8750000000000000
  0.2390407500000000  0.8640407500000000  0.3750000000000000
  0.1984592499999999  0.9484592500000001  0.7500000000000000
  0.0515407500000000  0.8015407500000001  0.5000000000000000
  0.1359592500000000  0.7609592500000001  0.6250000000000000
  0.1984592499999999  0.9484592500000001  0.5000000000000000
  0.2390407499999999  0.8640407500000001  0.6250000000000000
  0.0515407500000000  0.8015407500000000  0.2500000000000000
  0.1359592500000000  0.7609592500000001  0.3750000000000000
  0.2390407499999999  0.8640407500000001  0.8750000000000000
  0.4890407500000000  0.1140407500000000  0.3750000000000000
  0.1359592499999999  0.5109592500000001  0.1250000000000000
  0.2390407500000000  0.6140407500000000  0.1250000000000000
  0.1984592500000000  0.1984592500000000  0.7500000000000000
  0.2390407500000000  0.1140407500000000  0.8750000000000000
  0.0515407500000000  0.0515407500000000  0.5000000000000000
  0.1359592500000000  0.0109592500000000  0.6250000000000000
  0.1984592500000000  0.1984592500000000  0.5000000000000000
  0.2390407500000000  0.1140407500000000  0.6250000000000000
  0.1359592500000001  0.0109592500000000  0.8750000000000000
  0.0515407500000000  0.0515407500000000  0.2500000000000000
  0.1984592500000000  0.1984592500000000  0.2500000000000000
  0.2390407500000000  0.1140407500000000  0.3750000000000000
  0.0515407500000000  0.0515407500000000  0.0000000000000000
  0.1359592500000000  0.0109592500000000  0.1250000000000000
  0.1984592500000000  0.1984592500000000  0.0000000000000000
  0.2390407500000000  0.1140407500000000  0.1250000000000000
  0.1359592500000000  0.0109592500000000  0.3750000000000000
  0.1984592499999999  0.6984592500000001  0.0000000000000000
  0.0515407500000000  0.0515407500000000  0.7500000000000000
  0.1984592500000000  0.4484592500000000  0.0000000000000000
  0.0515407500000000  0.3015407500000000  0.7500000000000000
  0.1359592500000001  0.2609592500000000  0.8750000000000000
  0.1984592500000001  0.4484592500000000  0.7500000000000000
  0.2390407500000001  0.3640407500000000  0.8750000000000000
  0.0515407500000000  0.3015407500000000  0.5000000000000000
  0.1359592500000000  0.2609592500000000  0.6250000000000000
  0.2390407500000000  0.3640407500000001  0.1250000000000000
  0.1984592500000001  0.4484592500000000  0.5000000000000000
  0.0515407500000000  0.3015407500000000  0.2500000000000000
  0.1359592500000000  0.2609592500000000  0.3750000000000000
  0.1984592500000000  0.4484592500000000  0.2500000000000000
  0.2390407500000000  0.3640407500000000  0.3750000000000000
  0.0515407500000000  0.3015407500000000  0.0000000000000000
  0.1359592500000000  0.2609592500000000  0.1250000000000000
  0.2390407500000000  0.3640407500000001  0.6250000000000000
  0.4484592500000001  0.1984592500000000  0.2500000000000000
  0.1359592500000000  0.7609592500000001  0.1250000000000000
  0.4484592500000001  0.4484592500000000  0.2500000000000000
  0.3015407500000000  0.0515407500000000  0.5000000000000000
  0.3859592500000001  0.2609592500000000  0.6250000000000000
  0.4890407500000001  0.6140407500000000  0.1250000000000000
  0.3015407500000000  0.3015407500000000  0.0000000000000000
  0.3015407500000000  0.3015407500000000  0.5000000000000000
  0.3859592500000001  0.2609592500000000  0.1250000000000000
  0.4484592500000001  0.4484592500000000  0.0000000000000000
  0.3859592500000001  0.0109592500000000  0.6250000000000000
  0.4890407500000000  0.1140407500000000  0.8750000000000000
  0.3015407500000000  0.3015407500000000  0.7500000000000000
  0.3859592500000001  0.0109592500000000  0.8750000000000000
  0.3015407500000000  0.3015407500000000  0.2500000000000000
  0.3859592500000001  0.2609592500000000  0.8750000000000000
  0.3015407500000000  0.0515407500000000  0.7500000000000000
  0.4484592500000001  0.4484592500000000  0.7500000000000000
  0.4890407500000000  0.3640407500000001  0.1250000000000000
  0.4484592500000001  0.1984592500000000  0.7500000000000000
  0.4484592500000001  0.4484592500000000  0.5000000000000000
  0.4890407500000001  0.3640407500000000  0.8750000000000000
  0.4890407500000000  0.1140407500000000  0.6250000000000000
  0.4484592500000001  0.1984592500000000  0.5000000000000000
  0.4890407500000001  0.3640407500000000  0.3750000000000000
  0.4484592500000000  0.6984592500000001  0.0000000000000000
  0.3015407500000000  0.0515407500000000  0.2500000000000000
  0.3859592500000001  0.5109592500000001  0.1250000000000000
  0.3859592500000001  0.2609592500000000  0.3750000000000000
  0.3015407500000000  0.5515407500000000  0.0000000000000000
  0.3859592500000001  0.0109592500000000  0.3750000000000000
  0.4890407500000000  0.3640407500000001  0.6250000000000000
  0.9375000000000000  0.5625000000000000  0.1250000000000000
  0.7500000000000000  0.2500000000000000  0.5000000000000000
  0.7500000000000000  0.5000000000000000  0.0000000000000000
  0.1875000000000000  0.3125000000000001  0.3750000000000000
  0.0000000000000000  0.2500000000000000  0.7500000000000000
  0.2500000000000000  0.2500000000000000  0.5000000000000000
  0.4375000000000000  0.3125000000000001  0.6250000000000000
  0.9375000000000002  0.3125000000000001  0.3750000000000000
  0.0000000000000000  0.2500000000000000  0.2500000000000000
  0.7500000000000000  0.2500000000000000  0.2500000000000000
  0.9375000000000002  0.3125000000000001  0.6250000000000000
  0.4375000000000001  0.3125000000000000  0.8750000000000000
  0.1875000000000001  0.3125000000000000  0.8750000000000000
  0.2499999999999999  0.7500000000000001  0.5000000000000000
  0.7500000000000000  0.2500000000000000  0.7500000000000000
  0.9375000000000002  0.3125000000000000  0.8750000000000000
  0.4375000000000000  0.8125000000000000  0.3750000000000000
  0.4375000000000000  0.8125000000000001  0.6250000000000000
  0.0000000000000000  0.2500000000000000  0.5000000000000000
  0.2499999999999999  0.7500000000000001  0.2500000000000000
  0.1875000000000000  0.3125000000000001  0.6250000000000000
  0.9375000000000000  0.5625000000000001  0.6250000000000000
  0.9375000000000000  0.5625000000000000  0.3750000000000000
  0.0000000000000000  0.0000000000000000  0.0000000000000000
  0.2500000000000001  0.5000000000000000  0.2500000000000000
  0.7500000000000000  0.7500000000000001  0.7500000000000000
  0.9375000000000002  0.8125000000000001  0.8750000000000000
  0.4375000000000000  0.5625000000000001  0.6250000000000000
  0.2500000000000001  0.5000000000000000  0.5000000000000000
  0.4375000000000000  0.5625000000000000  0.3750000000000000
  0.1875000000000000  0.0625000000000000  0.3750000000000000
  0.7500000000000000  0.7500000000000001  0.5000000000000000
  0.9375000000000002  0.8125000000000001  0.6250000000000000
  0.0000000000000000  0.0000000000000000  0.2500000000000000
  0.7500000000000000  0.7500000000000001  0.2500000000000000
  0.9375000000000002  0.8125000000000000  0.3750000000000000
  0.4375000000000000  0.5625000000000000  0.8750000000000000
  0.1875000000000000  0.0625000000000000  0.6250000000000000
  0.0000000000000000  0.0000000000000000  0.5000000000000000
  0.2500000000000001  0.5000000000000000  0.7500000000000000
  0.7500000000000000  0.5000000000000000  0.2500000000000000
  0.0000000000000000  0.2500000000000000  0.0000000000000000
  0.1875000000000000  0.3125000000000001  0.1250000000000000
  0.7500000000000000  0.5000000000000000  0.5000000000000000
  0.2499999999999999  0.7500000000000001  0.0000000000000000
  0.4374999999999998  0.8125000000000001  0.1250000000000000
  0.2500000000000000  0.2500000000000000  0.7500000000000000
  0.0000000000000000  0.0000000000000000  0.7500000000000000
  0.7500000000000000  0.5000000000000000  0.7500000000000000
  0.1875000000000000  0.0625000000000000  0.8750000000000000
  0.4375000000000000  0.5625000000000000  0.1250000000000000
  0.2500000000000001  0.5000000000000000  0.0000000000000000
  0.9375000000000002  0.8125000000000001  0.1250000000000000
  0.7500000000000000  0.7500000000000001  0.0000000000000000
  0.9375000000000000  0.5625000000000000  0.8750000000000000
  0.7500000000000000  0.2500000000000000  0.0000000000000000
  0.5000000000000000  0.2500000000000000  0.2500000000000000
  0.4375000000000000  0.8125000000000001  0.8750000000000000
  0.1875000000000000  0.8125000000000001  0.8750000000000000
  0.4375000000000001  0.0625000000000000  0.8750000000000000
  0.6875000000000001  0.5625000000000001  0.6250000000000000
  0.5000000000000000  0.5000000000000000  0.5000000000000000
  0.5000000000000000  0.0000000000000000  0.7500000000000000
  0.9999999999999999  0.7500000000000001  0.5000000000000000
  0.5000000000000000  0.5000000000000000  0.2500000000000000
  0.1875000000000000  0.8125000000000001  0.6250000000000000
  0.6875000000000001  0.5625000000000000  0.8750000000000000
  0.5000000000000000  0.5000000000000000  0.7500000000000000
  0.2500000000000000  0.0000000000000000  0.7500000000000000
  0.9999999999999999  0.7500000000000001  0.2500000000000000
  0.6875000000000000  0.8125000000000001  0.1250000000000000
  0.4999999999999999  0.7500000000000001  0.0000000000000000
  0.6875000000000001  0.0625000000000000  0.8750000000000000
  0.1875000000000000  0.8125000000000000  0.3750000000000000
  0.6875000000000001  0.5625000000000000  0.3750000000000000
  0.6875000000000000  0.3125000000000001  0.1250000000000000
  0.2500000000000000  0.0000000000000000  0.2500000000000000
  0.6875000000000000  0.3125000000000001  0.6250000000000000
  0.5000000000000000  0.2500000000000000  0.5000000000000000
  0.4375000000000000  0.0625000000000000  0.3750000000000000
  0.6875000000000000  0.3125000000000001  0.3750000000000000
  0.4375000000000000  0.0625000000000000  0.6250000000000000
  0.9999999999999999  0.7500000000000001  0.7500000000000000
  0.6875000000000000  0.3125000000000000  0.8750000000000000
  0.2500000000000000  0.0000000000000000  0.5000000000000000
  0.2500000000000000  0.0000000000000000  0.0000000000000000
  0.4375000000000001  0.0625000000000000  0.1250000000000000
  0.6875000000000001  0.5625000000000000  0.1250000000000000
  0.5000000000000000  0.5000000000000000  0.0000000000000000
  0.5000000000000000  0.2500000000000000  0.0000000000000000
  0.5000000000000000  0.2500000000000000  0.7500000000000000
  0.9375000000000002  0.3125000000000001  0.1250000000000000
  0.5000000000000000  0.0000000000000000  0.5000000000000000
  0.6875000000000000  0.8125000000000000  0.3750000000000000
  0.9375000000000000  0.0625000000000000  0.3750000000000000
  0.7500000000000000  0.0000000000000000  0.2500000000000000
  0.5000000000000000  0.0000000000000000  0.0000000000000000
  0.6875000000000001  0.0625000000000000  0.1250000000000000
  0.2500000000000000  0.2500000000000000  0.2500000000000000
  0.0000000000000000  0.5000000000000000  0.2500000000000000
  0.4375000000000000  0.3125000000000001  0.3750000000000000
  0.9375000000000000  0.0625000000000000  0.6250000000000000
  0.1875000000000000  0.5625000000000000  0.3750000000000000
  0.9375000000000000  0.0625000000000000  0.8750000000000000
  0.7500000000000000  0.0000000000000000  0.7500000000000000
  0.2499999999999999  0.7500000000000001  0.7500000000000000
  0.0000000000000000  0.5000000000000000  0.0000000000000000
  0.1875000000000001  0.5625000000000000  0.1250000000000000
  0.7500000000000000  0.0000000000000000  0.5000000000000000
  0.6875000000000001  0.0625000000000000  0.6250000000000000
  0.1874999999999999  0.5625000000000001  0.6250000000000000
  0.7500000000000000  0.0000000000000000  0.0000000000000000
  0.4999999999999999  0.7500000000000001  0.2500000000000000
  0.9999999999999999  0.7500000000000001  0.0000000000000000
  0.1875000000000000  0.8125000000000001  0.1250000000000000
  0.4375000000000000  0.3125000000000001  0.1250000000000000
  0.6875000000000000  0.8125000000000001  0.6250000000000000
  0.4999999999999999  0.7500000000000001  0.5000000000000000
  0.0000000000000000  0.5000000000000000  0.5000000000000000
  0.2500000000000000  0.2500000000000000  0.0000000000000000
  0.0000000000000000  0.5000000000000000  0.7500000000000000
  0.6875000000000000  0.8125000000000001  0.8750000000000000
  0.4999999999999999  0.7500000000000001  0.7500000000000000
  0.1875000000000000  0.5625000000000000  0.8750000000000000
  0.6875000000000001  0.0625000000000000  0.3750000000000000
  0.9375000000000000  0.0625000000000000  0.1250000000000000
  0.5000000000000000  0.0000000000000000  0.2500000000000000
  0.1875000000000000  0.0625000000000000  0.1250000000000000
