Pt 
 1.0000000000000000
    22.1748686580101300    0.0000000000000000    0.0000000000000000
     0.0000000000000000   22.1748686580101300    0.0000000000000000
     0.0000000000000000    0.0000000000000000   30.6799999999999997
  Pt
 512
Direct
  0.0000000000000000  0.0000000000000000  0.0000000000000000
  0.8125000000000000  0.4375000000000001  0.3194263363754890
  0.7500000000000001  0.3750000000000001  0.2555410691003911
  0.8125000000000000  0.4375000000000001  0.1916558018252933
  0.7500000000000001  0.3750000000000001  0.1277705345501956
  0.8125000000000000  0.4375000000000001  0.0638852672750978
  0.7500000000000001  0.3750000000000001  0.0000000000000000
  0.8125000000000000  0.3125000000000000  0.4471968709256844
  0.7500000000000001  0.2500000000000000  0.3833116036505867
  0.8125000000000000  0.3125000000000000  0.3194263363754890
  0.7500000000000001  0.2500000000000000  0.2555410691003911
  0.8125000000000000  0.3125000000000000  0.1916558018252933
  0.7500000000000001  0.2500000000000000  0.1277705345501956
  0.8125000000000000  0.3125000000000000  0.0638852672750978
  0.7500000000000001  0.3750000000000001  0.3833116036505867
  0.7500000000000001  0.2500000000000000  0.0000000000000000
  0.7500000000000001  0.1250000000000000  0.3833116036505867
  0.8125000000000000  0.1875000000000000  0.3194263363754890
  0.7500000000000001  0.1250000000000000  0.2555410691003911
  0.8125000000000000  0.1875000000000000  0.1916558018252933
  0.7500000000000001  0.1250000000000000  0.1277705345501956
  0.8125000000000000  0.1875000000000000  0.0638852672750978
  0.7500000000000001  0.1250000000000000  0.0000000000000000
  0.8125000000000000  0.0625000000000000  0.4471968709256844
  0.7500000000000001  0.0000000000000000  0.3833116036505867
  0.8125000000000000  0.0625000000000000  0.3194263363754890
  0.7500000000000001  0.0000000000000000  0.2555410691003911
  0.8125000000000000  0.0625000000000000  0.1916558018252933
  0.7500000000000001  0.0000000000000000  0.1277705345501956
  0.8125000000000000  0.1875000000000000  0.4471968709256844
  0.8125000000000000  0.0625000000000000  0.0638852672750978
  0.8125000000000000  0.4375000000000001  0.4471968709256844
  0.9375000000000001  0.0625000000000000  0.0638852672750978
  0.9375000000000001  0.4375000000000001  0.3194263363754890
  0.8750000000000001  0.3750000000000001  0.2555410691003911
  0.9375000000000001  0.4375000000000001  0.1916558018252933
  0.8750000000000001  0.3750000000000001  0.1277705345501956
  0.9375000000000001  0.4375000000000001  0.0638852672750978
  0.8750000000000001  0.3750000000000001  0.0000000000000000
  0.9375000000000001  0.3125000000000000  0.4471968709256844
  0.8750000000000001  0.2500000000000000  0.3833116036505867
  0.9375000000000001  0.3125000000000000  0.3194263363754890
  0.8750000000000001  0.2500000000000000  0.2555410691003911
  0.9375000000000001  0.3125000000000000  0.1916558018252933
  0.8750000000000001  0.2500000000000000  0.1277705345501956
  0.9375000000000001  0.3125000000000000  0.0638852672750978
  0.8750000000000001  0.0000000000000000  0.0000000000000000
  0.8750000000000001  0.2500000000000000  0.0000000000000000
  0.8750000000000001  0.1250000000000000  0.3833116036505867
  0.9375000000000001  0.1875000000000000  0.3194263363754890
  0.8750000000000001  0.1250000000000000  0.2555410691003911
  0.9375000000000001  0.1875000000000000  0.1916558018252933
  0.8750000000000001  0.1250000000000000  0.1277705345501956
  0.9375000000000001  0.1875000000000000  0.0638852672750978
  0.8750000000000001  0.1250000000000000  0.0000000000000000
  0.9375000000000001  0.0625000000000000  0.4471968709256844
  0.8750000000000001  0.0000000000000000  0.3833116036505867
  0.9375000000000001  0.0625000000000000  0.3194263363754890
  0.8750000000000001  0.0000000000000000  0.2555410691003911
  0.9375000000000001  0.0625000000000000  0.1916558018252933
  0.8750000000000001  0.0000000000000000  0.1277705345501956
  0.9375000000000001  0.1875000000000000  0.4471968709256844
  0.8750000000000001  0.3750000000000001  0.3833116036505867
  0.7500000000000001  0.0000000000000000  0.0000000000000000
  0.6250000000000000  0.3750000000000001  0.3833116036505867
  0.5625000000000000  0.4375000000000001  0.3194263363754890
  0.5000000000000000  0.3750000000000001  0.2555410691003911
  0.5625000000000000  0.4375000000000001  0.1916558018252933
  0.5000000000000000  0.3750000000000001  0.1277705345501956
  0.5625000000000000  0.4375000000000001  0.0638852672750978
  0.5000000000000000  0.3750000000000001  0.0000000000000000
  0.5625000000000000  0.3125000000000000  0.4471968709256844
  0.5000000000000000  0.2500000000000000  0.3833116036505867
  0.5625000000000000  0.3125000000000000  0.3194263363754890
  0.5000000000000000  0.2500000000000000  0.2555410691003911
  0.5625000000000000  0.3125000000000000  0.1916558018252933
  0.5000000000000000  0.2500000000000000  0.1277705345501956
  0.5625000000000000  0.3125000000000000  0.0638852672750978
  0.5000000000000000  0.3750000000000001  0.3833116036505867
  0.5000000000000000  0.2500000000000000  0.0000000000000000
  0.5000000000000000  0.1250000000000000  0.3833116036505867
  0.5625000000000000  0.1875000000000000  0.3194263363754890
  0.5000000000000000  0.1250000000000000  0.2555410691003911
  0.5625000000000000  0.1875000000000000  0.1916558018252933
  0.5000000000000000  0.1250000000000000  0.1277705345501956
  0.5625000000000000  0.1875000000000000  0.0638852672750978
  0.5000000000000000  0.1250000000000000  0.0000000000000000
  0.5625000000000000  0.0625000000000000  0.4471968709256844
  0.5000000000000000  0.0000000000000000  0.3833116036505867
  0.5625000000000000  0.0625000000000000  0.3194263363754890
  0.5000000000000000  0.0000000000000000  0.2555410691003911
  0.5625000000000000  0.0625000000000000  0.1916558018252933
  0.5000000000000000  0.0000000000000000  0.1277705345501956
  0.5625000000000000  0.1875000000000000  0.4471968709256844
  0.6875000000000000  0.4375000000000001  0.4471968709256844
  0.5625000000000000  0.4375000000000001  0.4471968709256844
  0.6875000000000000  0.0625000000000000  0.0638852672750978
  0.6875000000000000  0.4375000000000001  0.3194263363754890
  0.6250000000000000  0.3750000000000001  0.2555410691003911
  0.6875000000000000  0.4375000000000001  0.1916558018252933
  0.6250000000000000  0.3750000000000001  0.1277705345501956
  0.6875000000000000  0.4375000000000001  0.0638852672750978
  0.6250000000000000  0.3750000000000001  0.0000000000000000
  0.6875000000000000  0.3125000000000000  0.4471968709256844
  0.6250000000000000  0.2500000000000000  0.3833116036505867
  0.6875000000000000  0.3125000000000000  0.3194263363754890
  0.6250000000000000  0.2500000000000000  0.2555410691003911
  0.6875000000000000  0.3125000000000000  0.1916558018252933
  0.6250000000000000  0.2500000000000000  0.1277705345501956
  0.6875000000000000  0.3125000000000000  0.0638852672750978
  0.6250000000000000  0.0000000000000000  0.0000000000000000
  0.6250000000000000  0.2500000000000000  0.0000000000000000
  0.6250000000000000  0.1250000000000000  0.3833116036505867
  0.6875000000000000  0.1875000000000000  0.3194263363754890
  0.6250000000000000  0.1250000000000000  0.2555410691003911
  0.6875000000000000  0.1875000000000000  0.1916558018252933
  0.6250000000000000  0.1250000000000000  0.1277705345501956
  0.6875000000000000  0.1875000000000000  0.0638852672750978
  0.6250000000000000  0.1250000000000000  0.0000000000000000
  0.6875000000000000  0.0625000000000000  0.4471968709256844
  0.6250000000000000  0.0000000000000000  0.3833116036505867
  0.6875000000000000  0.0625000000000000  0.3194263363754890
  0.6250000000000000  0.0000000000000000  0.2555410691003911
  0.6875000000000000  0.0625000000000000  0.1916558018252933
  0.6250000000000000  0.0000000000000000  0.1277705345501956
  0.6875000000000000  0.1875000000000000  0.4471968709256844
  0.5625000000000000  0.0625000000000000  0.0638852672750978
  0.9375000000000001  0.4375000000000001  0.4471968709256844
  0.5625000000000000  0.5625000000000000  0.0638852672750978
  0.8125000000000000  0.9375000000000001  0.3194263363754890
  0.7500000000000001  0.8750000000000001  0.2555410691003911
  0.8125000000000000  0.9375000000000001  0.1916558018252933
  0.7500000000000001  0.8750000000000001  0.1277705345501956
  0.8125000000000000  0.9375000000000001  0.0638852672750978
  0.7500000000000001  0.8750000000000001  0.0000000000000000
  0.8125000000000000  0.8125000000000000  0.4471968709256844
  0.7500000000000001  0.7500000000000001  0.3833116036505867
  0.8125000000000000  0.8125000000000000  0.3194263363754890
  0.7500000000000001  0.7500000000000001  0.2555410691003911
  0.8125000000000000  0.8125000000000000  0.1916558018252933
  0.7500000000000001  0.7500000000000001  0.1277705345501956
  0.8125000000000000  0.8125000000000000  0.0638852672750978
  0.7500000000000001  0.8750000000000001  0.3833116036505867
  0.7500000000000001  0.7500000000000001  0.0000000000000000
  0.7500000000000001  0.6250000000000000  0.3833116036505867
  0.8125000000000000  0.6875000000000000  0.3194263363754890
  0.7500000000000001  0.6250000000000000  0.2555410691003911
  0.8125000000000000  0.6875000000000000  0.1916558018252933
  0.7500000000000001  0.6250000000000000  0.1277705345501956
  0.8125000000000000  0.6875000000000000  0.0638852672750978
  0.7500000000000001  0.6250000000000000  0.0000000000000000
  0.8125000000000000  0.5625000000000000  0.4471968709256844
  0.7500000000000001  0.5000000000000000  0.3833116036505867
  0.8125000000000000  0.5625000000000000  0.3194263363754890
  0.7500000000000001  0.5000000000000000  0.2555410691003911
  0.8125000000000000  0.5625000000000000  0.1916558018252933
  0.7500000000000001  0.5000000000000000  0.1277705345501956
  0.8125000000000000  0.6875000000000000  0.4471968709256844
  0.8125000000000000  0.5625000000000000  0.0638852672750978
  0.8125000000000000  0.9375000000000001  0.4471968709256844
  0.9375000000000001  0.5625000000000000  0.0638852672750978
  0.9375000000000001  0.9375000000000001  0.3194263363754890
  0.8750000000000001  0.8750000000000001  0.2555410691003911
  0.9375000000000001  0.9375000000000001  0.1916558018252933
  0.8750000000000001  0.8750000000000001  0.1277705345501956
  0.9375000000000001  0.9375000000000001  0.0638852672750978
  0.8750000000000001  0.8750000000000001  0.0000000000000000
  0.9375000000000001  0.8125000000000000  0.4471968709256844
  0.8750000000000001  0.7500000000000001  0.3833116036505867
  0.9375000000000001  0.8125000000000000  0.3194263363754890
  0.8750000000000001  0.7500000000000001  0.2555410691003911
  0.9375000000000001  0.8125000000000000  0.1916558018252933
  0.8750000000000001  0.7500000000000001  0.1277705345501956
  0.9375000000000001  0.8125000000000000  0.0638852672750978
  0.8750000000000001  0.5000000000000000  0.0000000000000000
  0.8750000000000001  0.7500000000000001  0.0000000000000000
  0.8750000000000001  0.6250000000000000  0.3833116036505867
  0.9375000000000001  0.6875000000000000  0.3194263363754890
  0.8750000000000001  0.6250000000000000  0.2555410691003911
  0.9375000000000001  0.6875000000000000  0.1916558018252933
  0.8750000000000001  0.6250000000000000  0.1277705345501956
  0.9375000000000001  0.6875000000000000  0.0638852672750978
  0.8750000000000001  0.6250000000000000  0.0000000000000000
  0.9375000000000001  0.5625000000000000  0.4471968709256844
  0.8750000000000001  0.5000000000000000  0.3833116036505867
  0.9375000000000001  0.5625000000000000  0.3194263363754890
  0.8750000000000001  0.5000000000000000  0.2555410691003911
  0.9375000000000001  0.5625000000000000  0.1916558018252933
  0.8750000000000001  0.5000000000000000  0.1277705345501956
  0.9375000000000001  0.6875000000000000  0.4471968709256844
  0.5000000000000000  0.5000000000000000  0.0000000000000000
  0.7500000000000001  0.5000000000000000  0.0000000000000000
  0.6250000000000000  0.8750000000000001  0.3833116036505867
  0.5625000000000000  0.9375000000000001  0.3194263363754890
  0.5000000000000000  0.8750000000000001  0.2555410691003911
  0.5625000000000000  0.9375000000000001  0.1916558018252933
  0.5000000000000000  0.8750000000000001  0.1277705345501956
  0.5625000000000000  0.9375000000000001  0.0638852672750978
  0.5000000000000000  0.8750000000000001  0.0000000000000000
  0.5625000000000000  0.8125000000000000  0.4471968709256844
  0.5000000000000000  0.7500000000000001  0.3833116036505867
  0.5625000000000000  0.8125000000000000  0.3194263363754890
  0.5000000000000000  0.7500000000000001  0.2555410691003911
  0.5625000000000000  0.8125000000000000  0.1916558018252933
  0.5000000000000000  0.7500000000000001  0.1277705345501956
  0.5625000000000000  0.8125000000000000  0.0638852672750978
  0.5000000000000000  0.8750000000000001  0.3833116036505867
  0.5000000000000000  0.7500000000000001  0.0000000000000000
  0.5000000000000000  0.6250000000000000  0.3833116036505867
  0.5625000000000000  0.6875000000000000  0.3194263363754890
  0.5000000000000000  0.6250000000000000  0.2555410691003911
  0.5625000000000000  0.6875000000000000  0.1916558018252933
  0.5000000000000000  0.6250000000000000  0.1277705345501956
  0.5625000000000000  0.6875000000000000  0.0638852672750978
  0.5000000000000000  0.6250000000000000  0.0000000000000000
  0.5625000000000000  0.5625000000000000  0.4471968709256844
  0.5000000000000000  0.5000000000000000  0.3833116036505867
  0.5625000000000000  0.5625000000000000  0.3194263363754890
  0.5000000000000000  0.5000000000000000  0.2555410691003911
  0.5625000000000000  0.5625000000000000  0.1916558018252933
  0.5000000000000000  0.5000000000000000  0.1277705345501956
  0.5625000000000000  0.6875000000000000  0.4471968709256844
  0.6875000000000000  0.9375000000000001  0.4471968709256844
  0.5625000000000000  0.9375000000000001  0.4471968709256844
  0.6875000000000000  0.5625000000000000  0.0638852672750978
  0.6875000000000000  0.9375000000000001  0.3194263363754890
  0.6250000000000000  0.8750000000000001  0.2555410691003911
  0.6875000000000000  0.9375000000000001  0.1916558018252933
  0.6250000000000000  0.8750000000000001  0.1277705345501956
  0.6875000000000000  0.9375000000000001  0.0638852672750978
  0.6250000000000000  0.8750000000000001  0.0000000000000000
  0.6875000000000000  0.8125000000000000  0.4471968709256844
  0.6250000000000000  0.7500000000000001  0.3833116036505867
  0.6875000000000000  0.8125000000000000  0.3194263363754890
  0.6250000000000000  0.7500000000000001  0.2555410691003911
  0.6875000000000000  0.8125000000000000  0.1916558018252933
  0.6250000000000000  0.7500000000000001  0.1277705345501956
  0.6875000000000000  0.8125000000000000  0.0638852672750978
  0.6250000000000000  0.5000000000000000  0.0000000000000000
  0.6250000000000000  0.7500000000000001  0.0000000000000000
  0.6250000000000000  0.6250000000000000  0.3833116036505867
  0.6875000000000000  0.6875000000000000  0.3194263363754890
  0.6250000000000000  0.6250000000000000  0.2555410691003911
  0.6875000000000000  0.6875000000000000  0.1916558018252933
  0.6250000000000000  0.6250000000000000  0.1277705345501956
  0.6875000000000000  0.6875000000000000  0.0638852672750978
  0.6250000000000000  0.6250000000000000  0.0000000000000000
  0.6875000000000000  0.5625000000000000  0.4471968709256844
  0.6250000000000000  0.5000000000000000  0.3833116036505867
  0.6875000000000000  0.5625000000000000  0.3194263363754890
  0.6250000000000000  0.5000000000000000  0.2555410691003911
  0.6875000000000000  0.5625000000000000  0.1916558018252933
  0.6250000000000000  0.5000000000000000  0.1277705345501956
  0.6875000000000000  0.6875000000000000  0.4471968709256844
  0.5000000000000000  0.0000000000000000  0.0000000000000000
  0.4375000000000001  0.9375000000000001  0.4471968709256844
  0.3750000000000001  0.8750000000000001  0.3833116036505867
  0.2500000000000000  0.3750000000000001  0.2555410691003911
  0.3125000000000000  0.4375000000000001  0.1916558018252933
  0.2500000000000000  0.3750000000000001  0.1277705345501956
  0.3125000000000000  0.4375000000000001  0.0638852672750978
  0.2500000000000000  0.3750000000000001  0.0000000000000000
  0.3125000000000000  0.3125000000000000  0.4471968709256844
  0.2500000000000000  0.2500000000000000  0.3833116036505867
  0.3125000000000000  0.3125000000000000  0.3194263363754890
  0.2500000000000000  0.2500000000000000  0.2555410691003911
  0.3125000000000000  0.3125000000000000  0.1916558018252933
  0.2500000000000000  0.2500000000000000  0.1277705345501956
  0.3125000000000000  0.3125000000000000  0.0638852672750978
  0.2500000000000000  0.2500000000000000  0.0000000000000000
  0.3125000000000000  0.4375000000000001  0.3194263363754890
  0.3125000000000000  0.1875000000000000  0.4471968709256844
  0.3125000000000000  0.1875000000000000  0.3194263363754890
  0.2500000000000000  0.1250000000000000  0.2555410691003911
  0.3125000000000000  0.1875000000000000  0.1916558018252933
  0.2500000000000000  0.1250000000000000  0.1277705345501956
  0.3125000000000000  0.1875000000000000  0.0638852672750978
  0.2500000000000000  0.1250000000000000  0.0000000000000000
  0.3125000000000000  0.0625000000000000  0.4471968709256844
  0.2500000000000000  0.0000000000000000  0.3833116036505867
  0.3125000000000000  0.0625000000000000  0.3194263363754890
  0.2500000000000000  0.0000000000000000  0.2555410691003911
  0.3125000000000000  0.0625000000000000  0.1916558018252933
  0.2500000000000000  0.0000000000000000  0.1277705345501956
  0.3125000000000000  0.0625000000000000  0.0638852672750978
  0.2500000000000000  0.1250000000000000  0.3833116036505867
  0.2500000000000000  0.0000000000000000  0.0000000000000000
  0.2500000000000000  0.3750000000000001  0.3833116036505867
  0.3750000000000001  0.0000000000000000  0.0000000000000000
  0.3750000000000001  0.3750000000000001  0.2555410691003911
  0.4375000000000001  0.4375000000000001  0.1916558018252933
  0.3750000000000001  0.3750000000000001  0.1277705345501956
  0.4375000000000001  0.4375000000000001  0.0638852672750978
  0.3750000000000001  0.3750000000000001  0.0000000000000000
  0.4375000000000001  0.3125000000000000  0.4471968709256844
  0.3750000000000001  0.2500000000000000  0.3833116036505867
  0.4375000000000001  0.3125000000000000  0.3194263363754890
  0.3750000000000001  0.2500000000000000  0.2555410691003911
  0.4375000000000001  0.3125000000000000  0.1916558018252933
  0.3750000000000001  0.2500000000000000  0.1277705345501956
  0.4375000000000001  0.3125000000000000  0.0638852672750978
  0.3750000000000001  0.2500000000000000  0.0000000000000000
  0.3125000000000000  0.4375000000000001  0.4471968709256844
  0.4375000000000001  0.1875000000000000  0.4471968709256844
  0.4375000000000001  0.1875000000000000  0.3194263363754890
  0.3750000000000001  0.1250000000000000  0.2555410691003911
  0.4375000000000001  0.1875000000000000  0.1916558018252933
  0.3750000000000001  0.1250000000000000  0.1277705345501956
  0.4375000000000001  0.1875000000000000  0.0638852672750978
  0.3750000000000001  0.1250000000000000  0.0000000000000000
  0.4375000000000001  0.0625000000000000  0.4471968709256844
  0.3750000000000001  0.0000000000000000  0.3833116036505867
  0.4375000000000001  0.0625000000000000  0.3194263363754890
  0.3750000000000001  0.0000000000000000  0.2555410691003911
  0.4375000000000001  0.0625000000000000  0.1916558018252933
  0.3750000000000001  0.0000000000000000  0.1277705345501956
  0.4375000000000001  0.0625000000000000  0.0638852672750978
  0.3750000000000001  0.1250000000000000  0.3833116036505867
  0.4375000000000001  0.4375000000000001  0.3194263363754890
  0.1875000000000000  0.4375000000000001  0.4471968709256844
  0.1875000000000000  0.4375000000000001  0.3194263363754890
  0.0000000000000000  0.3750000000000001  0.2555410691003911
  0.0625000000000000  0.4375000000000001  0.1916558018252933
  0.0000000000000000  0.3750000000000001  0.1277705345501956
  0.0625000000000000  0.4375000000000001  0.0638852672750978
  0.0000000000000000  0.3750000000000001  0.0000000000000000
  0.0625000000000000  0.3125000000000000  0.4471968709256844
  0.0000000000000000  0.2500000000000000  0.3833116036505867
  0.0625000000000000  0.3125000000000000  0.3194263363754890
  0.0000000000000000  0.2500000000000000  0.2555410691003911
  0.0625000000000000  0.3125000000000000  0.1916558018252933
  0.0000000000000000  0.2500000000000000  0.1277705345501956
  0.0625000000000000  0.3125000000000000  0.0638852672750978
  0.0000000000000000  0.2500000000000000  0.0000000000000000
  0.0625000000000000  0.4375000000000001  0.3194263363754890
  0.0625000000000000  0.1875000000000000  0.4471968709256844
  0.0625000000000000  0.1875000000000000  0.3194263363754890
  0.0000000000000000  0.1250000000000000  0.2555410691003911
  0.0625000000000000  0.1875000000000000  0.1916558018252933
  0.0000000000000000  0.1250000000000000  0.1277705345501956
  0.0625000000000000  0.1875000000000000  0.0638852672750978
  0.0000000000000000  0.1250000000000000  0.0000000000000000
  0.0625000000000000  0.0625000000000000  0.4471968709256844
  0.0000000000000000  0.0000000000000000  0.3833116036505867
  0.0625000000000000  0.0625000000000000  0.3194263363754890
  0.0000000000000000  0.0000000000000000  0.2555410691003911
  0.0625000000000000  0.0625000000000000  0.1916558018252933
  0.0000000000000000  0.0000000000000000  0.1277705345501956
  0.0625000000000000  0.0625000000000000  0.0638852672750978
  0.0000000000000000  0.1250000000000000  0.3833116036505867
  0.1250000000000000  0.3750000000000001  0.3833116036505867
  0.0000000000000000  0.3750000000000001  0.3833116036505867
  0.1250000000000000  0.0000000000000000  0.0000000000000000
  0.1250000000000000  0.3750000000000001  0.2555410691003911
  0.1875000000000000  0.4375000000000001  0.1916558018252933
  0.1250000000000000  0.3750000000000001  0.1277705345501956
  0.1875000000000000  0.4375000000000001  0.0638852672750978
  0.1250000000000000  0.3750000000000001  0.0000000000000000
  0.1875000000000000  0.3125000000000000  0.4471968709256844
  0.1250000000000000  0.2500000000000000  0.3833116036505867
  0.1875000000000000  0.3125000000000000  0.3194263363754890
  0.1250000000000000  0.2500000000000000  0.2555410691003911
  0.1875000000000000  0.3125000000000000  0.1916558018252933
  0.1250000000000000  0.2500000000000000  0.1277705345501956
  0.1875000000000000  0.3125000000000000  0.0638852672750978
  0.1250000000000000  0.2500000000000000  0.0000000000000000
  0.0625000000000000  0.4375000000000001  0.4471968709256844
  0.1875000000000000  0.1875000000000000  0.4471968709256844
  0.1875000000000000  0.1875000000000000  0.3194263363754890
  0.1250000000000000  0.1250000000000000  0.2555410691003911
  0.1875000000000000  0.1875000000000000  0.1916558018252933
  0.1250000000000000  0.1250000000000000  0.1277705345501956
  0.1875000000000000  0.1875000000000000  0.0638852672750978
  0.1250000000000000  0.1250000000000000  0.0000000000000000
  0.1875000000000000  0.0625000000000000  0.4471968709256844
  0.1250000000000000  0.0000000000000000  0.3833116036505867
  0.1875000000000000  0.0625000000000000  0.3194263363754890
  0.1250000000000000  0.0000000000000000  0.2555410691003911
  0.1875000000000000  0.0625000000000000  0.1916558018252933
  0.1250000000000000  0.0000000000000000  0.1277705345501956
  0.1875000000000000  0.0625000000000000  0.0638852672750978
  0.1250000000000000  0.1250000000000000  0.3833116036505867
  0.3750000000000001  0.3750000000000001  0.3833116036505867
  0.4375000000000001  0.4375000000000001  0.4471968709256844
  0.0000000000000000  0.5000000000000000  0.0000000000000000
  0.3125000000000000  0.9375000000000001  0.3194263363754890
  0.2500000000000000  0.8750000000000001  0.2555410691003911
  0.3125000000000000  0.9375000000000001  0.1916558018252933
  0.2500000000000000  0.8750000000000001  0.1277705345501956
  0.3125000000000000  0.9375000000000001  0.0638852672750978
  0.2500000000000000  0.8750000000000001  0.0000000000000000
  0.3125000000000000  0.8125000000000000  0.4471968709256844
  0.2500000000000000  0.7500000000000001  0.3833116036505867
  0.3125000000000000  0.8125000000000000  0.3194263363754890
  0.2500000000000000  0.7500000000000001  0.2555410691003911
  0.3125000000000000  0.8125000000000000  0.1916558018252933
  0.2500000000000000  0.7500000000000001  0.1277705345501956
  0.3125000000000000  0.8125000000000000  0.0638852672750978
  0.2500000000000000  0.8750000000000001  0.3833116036505867
  0.2500000000000000  0.7500000000000001  0.0000000000000000
  0.2500000000000000  0.6250000000000000  0.3833116036505867
  0.3125000000000000  0.6875000000000000  0.3194263363754890
  0.2500000000000000  0.6250000000000000  0.2555410691003911
  0.3125000000000000  0.6875000000000000  0.1916558018252933
  0.2500000000000000  0.6250000000000000  0.1277705345501956
  0.3125000000000000  0.6875000000000000  0.0638852672750978
  0.2500000000000000  0.6250000000000000  0.0000000000000000
  0.3125000000000000  0.5625000000000000  0.4471968709256844
  0.2500000000000000  0.5000000000000000  0.3833116036505867
  0.3125000000000000  0.5625000000000000  0.3194263363754890
  0.2500000000000000  0.5000000000000000  0.2555410691003911
  0.3125000000000000  0.5625000000000000  0.1916558018252933
  0.2500000000000000  0.5000000000000000  0.1277705345501956
  0.3125000000000000  0.6875000000000000  0.4471968709256844
  0.3125000000000000  0.5625000000000000  0.0638852672750978
  0.3125000000000000  0.9375000000000001  0.4471968709256844
  0.4375000000000001  0.5625000000000000  0.0638852672750978
  0.4375000000000001  0.9375000000000001  0.3194263363754890
  0.3750000000000001  0.8750000000000001  0.2555410691003911
  0.4375000000000001  0.9375000000000001  0.1916558018252933
  0.3750000000000001  0.8750000000000001  0.1277705345501956
  0.4375000000000001  0.9375000000000001  0.0638852672750978
  0.3750000000000001  0.8750000000000001  0.0000000000000000
  0.4375000000000001  0.8125000000000000  0.4471968709256844
  0.3750000000000001  0.7500000000000001  0.3833116036505867
  0.4375000000000001  0.8125000000000000  0.3194263363754890
  0.3750000000000001  0.7500000000000001  0.2555410691003911
  0.4375000000000001  0.8125000000000000  0.1916558018252933
  0.3750000000000001  0.7500000000000001  0.1277705345501956
  0.4375000000000001  0.8125000000000000  0.0638852672750978
  0.3750000000000001  0.5000000000000000  0.0000000000000000
  0.3750000000000001  0.7500000000000001  0.0000000000000000
  0.3750000000000001  0.6250000000000000  0.3833116036505867
  0.4375000000000001  0.6875000000000000  0.3194263363754890
  0.3750000000000001  0.6250000000000000  0.2555410691003911
  0.4375000000000001  0.6875000000000000  0.1916558018252933
  0.3750000000000001  0.6250000000000000  0.1277705345501956
  0.4375000000000001  0.6875000000000000  0.0638852672750978
  0.3750000000000001  0.6250000000000000  0.0000000000000000
  0.4375000000000001  0.5625000000000000  0.4471968709256844
  0.3750000000000001  0.5000000000000000  0.3833116036505867
  0.4375000000000001  0.5625000000000000  0.3194263363754890
  0.3750000000000001  0.5000000000000000  0.2555410691003911
  0.4375000000000001  0.5625000000000000  0.1916558018252933
  0.3750000000000001  0.5000000000000000  0.1277705345501956
  0.4375000000000001  0.6875000000000000  0.4471968709256844
  0.2500000000000000  0.5000000000000000  0.0000000000000000
  0.1875000000000000  0.9375000000000001  0.4471968709256844
  0.1250000000000000  0.8750000000000001  0.3833116036505867
  0.0000000000000000  0.8750000000000001  0.2555410691003911
  0.0625000000000000  0.9375000000000001  0.1916558018252933
  0.0000000000000000  0.8750000000000001  0.1277705345501956
  0.0625000000000000  0.9375000000000001  0.0638852672750978
  0.0000000000000000  0.8750000000000001  0.0000000000000000
  0.0625000000000000  0.8125000000000000  0.4471968709256844
  0.0000000000000000  0.7500000000000001  0.3833116036505867
  0.0625000000000000  0.8125000000000000  0.3194263363754890
  0.0000000000000000  0.7500000000000001  0.2555410691003911
  0.0625000000000000  0.8125000000000000  0.1916558018252933
  0.0000000000000000  0.7500000000000001  0.1277705345501956
  0.0625000000000000  0.8125000000000000  0.0638852672750978
  0.0000000000000000  0.7500000000000001  0.0000000000000000
  0.0625000000000000  0.9375000000000001  0.3194263363754890
  0.0625000000000000  0.6875000000000000  0.4471968709256844
  0.0625000000000000  0.6875000000000000  0.3194263363754890
  0.0000000000000000  0.6250000000000000  0.2555410691003911
  0.0625000000000000  0.6875000000000000  0.1916558018252933
  0.0000000000000000  0.6250000000000000  0.1277705345501956
  0.0625000000000000  0.6875000000000000  0.0638852672750978
  0.0000000000000000  0.6250000000000000  0.0000000000000000
  0.0625000000000000  0.5625000000000000  0.4471968709256844
  0.0000000000000000  0.5000000000000000  0.3833116036505867
  0.0625000000000000  0.5625000000000000  0.3194263363754890
  0.0000000000000000  0.5000000000000000  0.2555410691003911
  0.0625000000000000  0.5625000000000000  0.1916558018252933
  0.0000000000000000  0.5000000000000000  0.1277705345501956
  0.0625000000000000  0.5625000000000000  0.0638852672750978
  0.0000000000000000  0.6250000000000000  0.3833116036505867
  0.0000000000000000  0.8750000000000001  0.3833116036505867
  0.0625000000000000  0.9375000000000001  0.4471968709256844
  0.1250000000000000  0.5000000000000000  0.0000000000000000
  0.1875000000000000  0.9375000000000001  0.3194263363754890
  0.1250000000000000  0.8750000000000001  0.2555410691003911
  0.1875000000000000  0.9375000000000001  0.1916558018252933
  0.1250000000000000  0.8750000000000001  0.1277705345501956
  0.1875000000000000  0.9375000000000001  0.0638852672750978
  0.1250000000000000  0.8750000000000001  0.0000000000000000