poscar-ZrO2_111-3x2
1.0
       15.3450002670         0.0000000000         0.0000000000
       -5.1150098151        11.7288795269         0.0000000000
        0.0000000000         0.0000000000        22.3498992920
   Zr    O
   42   78
Selective dynamics
Direct
0.00000	0.00000	0.30893	T	T	T
0.33333	0.00000	0.30893	T	T	T
0.66667	0.00000	0.30893	T	T	T
0.00000	0.50000	0.30893	T	T	T
0.33333	0.50000	0.30893	T	T	T
0.66667	0.50000	0.30893	T	T	T
0.23415	0.20245	0.25744	T	T	T
0.56748	0.20245	0.25744	T	T	T
0.90082	0.20245	0.25744	T	T	T
0.23415	0.70245	0.25744	T	T	T
0.56748	0.70245	0.25744	T	T	T
0.90082	0.70245	0.25744	T	T	T
0.13497	0.40491	0.20595	T	T	T
0.46830	0.40491	0.20595	T	T	T
0.80164	0.40491	0.20595	T	T	T
0.13497	0.90491	0.20595	T	T	T
0.46830	0.90491	0.20595	T	T	T
0.80164	0.90491	0.20595	T	T	T
0.03579	0.10736	0.15446	T	T	T
0.36912	0.10736	0.15446	T	T	T
0.70245	0.10736	0.15446	T	T	T
0.03579	0.60736	0.15446	T	T	T
0.36912	0.60736	0.15446	T	T	T
0.70245	0.60736	0.15446	T	T	T
0.26994	0.30981	0.10298	F	F	F
0.60327	0.30981	0.10298	F	F	F
0.93660	0.30981	0.10298	F	F	F
0.26994	0.80981	0.10298	F	F	F
0.60327	0.80981	0.10298	F	F	F
0.93660	0.80981	0.10298	F	F	F
0.17076	0.01227	0.05149	F	F	F
0.50409	0.01227	0.05149	F	F	F
0.83742	0.01227	0.05149	F	F	F
0.17076	0.51227	0.05149	F	F	F
0.50409	0.51227	0.05149	F	F	F
0.83742	0.51227	0.05149	F	F	F
0.07157	0.21472	0.00000	F	F	F
0.40491	0.21472	0.00000	F	F	F
0.73824	0.21472	0.00000	F	F	F
0.07157	0.71472	0.00000	F	F	F
0.40491	0.71472	0.00000	F	F	F
0.73824	0.71472	0.00000	F	F	F
0.14054	0.17163	0.32886	T	T	T
0.47388	0.17163	0.32886	T	T	T
0.80721	0.17163	0.32886	T	T	T
0.14054	0.67163	0.32886	T	T	T
0.47388	0.67163	0.32886	T	T	T
0.80721	0.67163	0.32886	T	T	T
0.02612	0.32837	0.28899	T	T	T
0.35946	0.32837	0.28899	T	T	T
0.69279	0.32837	0.28899	T	T	T
0.02612	0.82837	0.28899	T	T	T
0.35946	0.82837	0.28899	T	T	T
0.69279	0.82837	0.28899	T	T	T
0.20803	0.37408	0.27737	T	T	T
0.54136	0.37408	0.27737	T	T	T
0.87469	0.37408	0.27737	T	T	T
0.20803	0.87408	0.27737	T	T	T
0.54136	0.87408	0.27737	T	T	T
0.87469	0.87408	0.27737	T	T	T
0.09361	0.03083	0.23751	T	T	T
0.42694	0.03083	0.23751	T	T	T
0.76028	0.03083	0.23751	T	T	T
0.09361	0.53083	0.23751	T	T	T
0.42694	0.53083	0.23751	T	T	T
0.76028	0.53083	0.23751	T	T	T
0.27551	0.07653	0.22588	T	T	T
0.60884	0.07653	0.22588	T	T	T
0.94218	0.07653	0.22588	T	T	T
0.27551	0.57653	0.22588	T	T	T
0.60884	0.57653	0.22588	T	T	T
0.94218	0.57653	0.22588	T	T	T
0.16109	0.23328	0.18602	T	T	T
0.49443	0.23328	0.18602	T	T	T
0.82776	0.23328	0.18602	T	T	T
0.16109	0.73328	0.18602	T	T	T
0.49443	0.73328	0.18602	T	T	T
0.82776	0.73328	0.18602	T	T	T
0.00966	0.27899	0.17439	T	T	T
0.34300	0.27899	0.17439	T	T	T
0.67633	0.27899	0.17439	T	T	T
0.00966	0.77899	0.17439	T	T	T
0.34300	0.77899	0.17439	T	T	T
0.67633	0.77899	0.17439	T	T	T
0.22858	0.43573	0.13453	T	T	T
0.56191	0.43573	0.13453	T	T	T
0.89524	0.43573	0.13453	T	T	T
0.22858	0.93573	0.13453	T	T	T
0.56191	0.93573	0.13453	T	T	T
0.89524	0.93573	0.13453	T	T	T
0.07715	0.48144	0.12291	T	T	T
0.41048	0.48144	0.12291	T	T	T
0.74381	0.48144	0.12291	T	T	T
0.07715	0.98144	0.12291	T	T	T
0.41048	0.98144	0.12291	T	T	T
0.74381	0.98144	0.12291	T	T	T
0.29606	0.13819	0.08304	F	F	F
0.62940	0.13819	0.08304	F	F	F
0.96273	0.13819	0.08304	F	F	F
0.29606	0.63819	0.08304	F	F	F
0.62940	0.63819	0.08304	F	F	F
0.96273	0.63819	0.08304	F	F	F
0.14463	0.18389	0.07142	F	F	F
0.47796	0.18389	0.07142	F	F	F
0.81130	0.18389	0.07142	F	F	F
0.14463	0.68389	0.07142	F	F	F
0.47796	0.68389	0.07142	F	F	F
0.81130	0.68389	0.07142	F	F	F
0.03021	0.34064	0.03156	F	F	F
0.36355	0.34064	0.03156	F	F	F
0.69688	0.34064	0.03156	F	F	F
0.03021	0.84064	0.03156	F	F	F
0.36355	0.84064	0.03156	F	F	F
0.69688	0.84064	0.03156	F	F	F
0.21212	0.38635	0.01993	F	F	F
0.54545	0.38635	0.01993	F	F	F
0.87878	0.38635	0.01993	F	F	F
0.21212	0.88635	0.01993	F	F	F
0.54545	0.88635	0.01993	F	F	F
0.87878	0.88635	0.01993	F	F	F
