Pt 
 1.0000000000000000
    22.1748686580101300    0.0000000000000000    0.0000000000000000
     0.0000000000000000   19.2039995834201136    0.0000000000000000
     0.0000000000000000    0.0000000000000000   30.0
 256
Cartesian
  0.0000000000000000  0.0000000000000000 0
  2.7718585822512662  0.0000000000000000 0
  5.5437171645025325  0.0000000000000000 0
  8.3155757467537992  0.0000000000000000 0
 11.0874343290050650  0.0000000000000000 0
 13.8592929112563308  0.0000000000000000 0
 16.6311514935075984  0.0000000000000000 0
 19.4030100757588642  0.0000000000000000 0
  1.3859292911256331  2.4004999479275142 0
  4.1577878733768996  2.4004999479275142 0
  6.9296464556281654  2.4004999479275142 0
  9.7015050378794321  2.4004999479275142 0
 12.4733636201306979  2.4004999479275142 0
 15.2452222023819637  2.4004999479275142 0
 18.0170807846332295  2.4004999479275142 0
 20.7889393668844953  2.4004999479275142 0
  0.0000000000000000  4.8009998958550284 0
  2.7718585822512662  4.8009998958550284 0
  5.5437171645025325  4.8009998958550284 0
  8.3155757467537992  4.8009998958550284 0
 11.0874343290050650  4.8009998958550284 0
 13.8592929112563308  4.8009998958550284 0
 16.6311514935075984  4.8009998958550284 0
 19.4030100757588642  4.8009998958550284 0
  1.3859292911256331  7.2014998437825426 0
  4.1577878733768996  7.2014998437825426 0
  6.9296464556281654  7.2014998437825426 0
  9.7015050378794321  7.2014998437825426 0
 12.4733636201306979  7.2014998437825426 0
 15.2452222023819637  7.2014998437825426 0
 18.0170807846332295  7.2014998437825426 0
 20.7889393668844953  7.2014998437825426 0
  0.0000000000000000  9.6019997917100568 0
  2.7718585822512662  9.6019997917100568 0
  5.5437171645025325  9.6019997917100568 0
  8.3155757467537992  9.6019997917100568 0
 11.0874343290050650  9.6019997917100568 0
 13.8592929112563308  9.6019997917100568 0
 16.6311514935075984  9.6019997917100568 0
 19.4030100757588642  9.6019997917100568 0
  1.3859292911256331 12.0024997396375710 0
  4.1577878733768996 12.0024997396375710 0
  6.9296464556281654 12.0024997396375710 0
  9.7015050378794321 12.0024997396375710 0
 12.4733636201306979 12.0024997396375710 0
 15.2452222023819637 12.0024997396375710 0
 18.0170807846332295 12.0024997396375710 0
 20.7889393668844953 12.0024997396375710 0
  0.0000000000000000 14.4029996875650852 0
  2.7718585822512662 14.4029996875650852 0
  5.5437171645025325 14.4029996875650852 0
  8.3155757467537992 14.4029996875650852 0
 11.0874343290050650 14.4029996875650852 0
 13.8592929112563308 14.4029996875650852 0
 16.6311514935075984 14.4029996875650852 0
 19.4030100757588642 14.4029996875650852 0
  1.3859292911256331 16.8034996354925994 0
  4.1577878733768996 16.8034996354925994 0
  6.9296464556281654 16.8034996354925994 0
  9.7015050378794321 16.8034996354925994 0
 12.4733636201306979 16.8034996354925994 0
 15.2452222023819637 16.8034996354925994 0
 18.0170807846332295 16.8034996354925994 0
 20.7889393668844953 16.8034996354925994 0
  1.3859292911256331  0.8001666493091714 2.2632130552233320
  4.1577878733768996  0.8001666493091714 2.2632130552233320
  6.9296464556281654  0.8001666493091714 2.2632130552233320
  9.7015050378794321  0.8001666493091714 2.2632130552233320
 12.4733636201306979  0.8001666493091714 2.2632130552233320
 15.2452222023819637  0.8001666493091714 2.2632130552233320
 18.0170807846332295  0.8001666493091714 2.2632130552233320
 20.7889393668844953  0.8001666493091714 2.2632130552233320
  0.0000000000000000  3.2006665972366855 2.2632130552233320
  2.7718585822512662  3.2006665972366855 2.2632130552233320
  5.5437171645025325  3.2006665972366855 2.2632130552233320
  8.3155757467537992  3.2006665972366855 2.2632130552233320
 11.0874343290050650  3.2006665972366855 2.2632130552233320
 13.8592929112563308  3.2006665972366855 2.2632130552233320
 16.6311514935075984  3.2006665972366855 2.2632130552233320
 19.4030100757588642  3.2006665972366855 2.2632130552233320
  1.3859292911256331  5.6011665451642001 2.2632130552233320
  4.1577878733768996  5.6011665451642001 2.2632130552233320
  6.9296464556281654  5.6011665451642001 2.2632130552233320
  9.7015050378794321  5.6011665451642001 2.2632130552233320
 12.4733636201306979  5.6011665451642001 2.2632130552233320
 15.2452222023819637  5.6011665451642001 2.2632130552233320
 18.0170807846332295  5.6011665451642001 2.2632130552233320
 20.7889393668844953  5.6011665451642001 2.2632130552233320
  0.0000000000000000  8.0016664930917152 2.2632130552233320
  2.7718585822512662  8.0016664930917152 2.2632130552233320
  5.5437171645025325  8.0016664930917152 2.2632130552233320
  8.3155757467537992  8.0016664930917152 2.2632130552233320
 11.0874343290050650  8.0016664930917152 2.2632130552233320
 13.8592929112563308  8.0016664930917152 2.2632130552233320
 16.6311514935075984  8.0016664930917152 2.2632130552233320
 19.4030100757588642  8.0016664930917152 2.2632130552233320
  1.3859292911256331 10.4021664410192276 2.2632130552233320
  4.1577878733768996 10.4021664410192276 2.2632130552233320
  6.9296464556281654 10.4021664410192276 2.2632130552233320
  9.7015050378794321 10.4021664410192276 2.2632130552233320
 12.4733636201306979 10.4021664410192276 2.2632130552233320
 15.2452222023819637 10.4021664410192276 2.2632130552233320
 18.0170807846332295 10.4021664410192276 2.2632130552233320
 20.7889393668844953 10.4021664410192276 2.2632130552233320
  0.0000000000000000 12.8026663889467418 2.2632130552233320
  2.7718585822512662 12.8026663889467418 2.2632130552233320
  5.5437171645025325 12.8026663889467418 2.2632130552233320
  8.3155757467537992 12.8026663889467418 2.2632130552233320
 11.0874343290050650 12.8026663889467418 2.2632130552233320
 13.8592929112563308 12.8026663889467418 2.2632130552233320
 16.6311514935075984 12.8026663889467418 2.2632130552233320
 19.4030100757588642 12.8026663889467418 2.2632130552233320
  1.3859292911256331 15.2031663368742560 2.2632130552233320
  4.1577878733768996 15.2031663368742560 2.2632130552233320
  6.9296464556281654 15.2031663368742560 2.2632130552233320
  9.7015050378794321 15.2031663368742560 2.2632130552233320
 12.4733636201306979 15.2031663368742560 2.2632130552233320
 15.2452222023819637 15.2031663368742560 2.2632130552233320
 18.0170807846332295 15.2031663368742560 2.2632130552233320
 20.7889393668844953 15.2031663368742560 2.2632130552233320
  0.0000000000000000 17.6036662848017684 2.2632130552233320
  2.7718585822512662 17.6036662848017684 2.2632130552233320
  5.5437171645025325 17.6036662848017684 2.2632130552233320
  8.3155757467537992 17.6036662848017684 2.2632130552233320
 11.0874343290050650 17.6036662848017684 2.2632130552233320
 13.8592929112563308 17.6036662848017684 2.2632130552233320
 16.6311514935075984 17.6036662848017684 2.2632130552233320
 19.4030100757588642 17.6036662848017684 2.2632130552233320
  0.0000000000000000  1.6003332986183427 4.5264261104466676
  2.7718585822512662  1.6003332986183427 4.5264261104466676
  5.5437171645025325  1.6003332986183427 4.5264261104466676
  8.3155757467537992  1.6003332986183427 4.5264261104466676
 11.0874343290050650  1.6003332986183427 4.5264261104466676
 13.8592929112563308  1.6003332986183427 4.5264261104466676
 16.6311514935075984  1.6003332986183427 4.5264261104466676
 19.4030100757588642  1.6003332986183427 4.5264261104466676
  1.3859292911256331  4.0008332465458567 4.5264261104466676
  4.1577878733768996  4.0008332465458567 4.5264261104466676
  6.9296464556281654  4.0008332465458567 4.5264261104466676
  9.7015050378794321  4.0008332465458567 4.5264261104466676
 12.4733636201306979  4.0008332465458567 4.5264261104466676
 15.2452222023819637  4.0008332465458567 4.5264261104466676
 18.0170807846332295  4.0008332465458567 4.5264261104466676
 20.7889393668844953  4.0008332465458567 4.5264261104466676
  0.0000000000000000  6.4013331944733709 4.5264261104466676
  2.7718585822512662  6.4013331944733709 4.5264261104466676
  5.5437171645025325  6.4013331944733709 4.5264261104466676
  8.3155757467537992  6.4013331944733709 4.5264261104466676
 11.0874343290050650  6.4013331944733709 4.5264261104466676
 13.8592929112563308  6.4013331944733709 4.5264261104466676
 16.6311514935075984  6.4013331944733709 4.5264261104466676
 19.4030100757588642  6.4013331944733709 4.5264261104466676
  1.3859292911256331  8.8018331424008842 4.5264261104466676
  4.1577878733768996  8.8018331424008842 4.5264261104466676
  6.9296464556281654  8.8018331424008842 4.5264261104466676
  9.7015050378794321  8.8018331424008842 4.5264261104466676
 12.4733636201306979  8.8018331424008842 4.5264261104466676
 15.2452222023819637  8.8018331424008842 4.5264261104466676
 18.0170807846332295  8.8018331424008842 4.5264261104466676
 20.7889393668844953  8.8018331424008842 4.5264261104466676
  0.0000000000000000 11.2023330903284002 4.5264261104466676
  2.7718585822512662 11.2023330903284002 4.5264261104466676
  5.5437171645025325 11.2023330903284002 4.5264261104466676
  8.3155757467537992 11.2023330903284002 4.5264261104466676
 11.0874343290050650 11.2023330903284002 4.5264261104466676
 13.8592929112563308 11.2023330903284002 4.5264261104466676
 16.6311514935075984 11.2023330903284002 4.5264261104466676
 19.4030100757588642 11.2023330903284002 4.5264261104466676
  1.3859292911256331 13.6028330382559144 4.5264261104466676
  4.1577878733768996 13.6028330382559144 4.5264261104466676
  6.9296464556281654 13.6028330382559144 4.5264261104466676
  9.7015050378794321 13.6028330382559144 4.5264261104466676
 12.4733636201306979 13.6028330382559144 4.5264261104466676
 15.2452222023819637 13.6028330382559144 4.5264261104466676
 18.0170807846332295 13.6028330382559144 4.5264261104466676
 20.7889393668844953 13.6028330382559144 4.5264261104466676
  0.0000000000000000 16.0033329861834304 4.5264261104466676
  2.7718585822512662 16.0033329861834304 4.5264261104466676
  5.5437171645025325 16.0033329861834304 4.5264261104466676
  8.3155757467537992 16.0033329861834304 4.5264261104466676
 11.0874343290050650 16.0033329861834304 4.5264261104466676
 13.8592929112563308 16.0033329861834304 4.5264261104466676
 16.6311514935075984 16.0033329861834304 4.5264261104466676
 19.4030100757588642 16.0033329861834304 4.5264261104466676
  1.3859292911256331 18.4038329341109446 4.5264261104466676
  4.1577878733768996 18.4038329341109446 4.5264261104466676
  6.9296464556281654 18.4038329341109446 4.5264261104466676
  9.7015050378794321 18.4038329341109446 4.5264261104466676
 12.4733636201306979 18.4038329341109446 4.5264261104466676
 15.2452222023819637 18.4038329341109446 4.5264261104466676
 18.0170807846332295 18.4038329341109446 4.5264261104466676
 20.7889393668844953 18.4038329341109446 4.5264261104466676
  0.0000000000000000  0.0000000000000000 6.7896391656699997
  2.7718585822512662  0.0000000000000000 6.7896391656699997
  5.5437171645025325  0.0000000000000000 6.7896391656699997
  8.3155757467537992  0.0000000000000000 6.7896391656699997
 11.0874343290050650  0.0000000000000000 6.7896391656699997
 13.8592929112563308  0.0000000000000000 6.7896391656699997
 16.6311514935075984  0.0000000000000000 6.7896391656699997
 19.4030100757588642  0.0000000000000000 6.7896391656699997
  1.3859292911256331  2.4004999479275142 6.7896391656699997
  4.1577878733768996  2.4004999479275142 6.7896391656699997
  6.9296464556281654  2.4004999479275142 6.7896391656699997
  9.7015050378794321  2.4004999479275142 6.7896391656699997
 12.4733636201306979  2.4004999479275142 6.7896391656699997
 15.2452222023819637  2.4004999479275142 6.7896391656699997
 18.0170807846332295  2.4004999479275142 6.7896391656699997
 20.7889393668844953  2.4004999479275142 6.7896391656699997
  0.0000000000000000  4.8009998958550284 6.7896391656699997
  2.7718585822512662  4.8009998958550284 6.7896391656699997
  5.5437171645025325  4.8009998958550284 6.7896391656699997
  8.3155757467537992  4.8009998958550284 6.7896391656699997
 11.0874343290050650  4.8009998958550284 6.7896391656699997
 13.8592929112563308  4.8009998958550284 6.7896391656699997
 16.6311514935075984  4.8009998958550284 6.7896391656699997
 19.4030100757588642  4.8009998958550284 6.7896391656699997
  1.3859292911256331  7.2014998437825426 6.7896391656699997
  4.1577878733768996  7.2014998437825426 6.7896391656699997
  6.9296464556281654  7.2014998437825426 6.7896391656699997
  9.7015050378794321  7.2014998437825426 6.7896391656699997
 12.4733636201306979  7.2014998437825426 6.7896391656699997
 15.2452222023819637  7.2014998437825426 6.7896391656699997
 18.0170807846332295  7.2014998437825426 6.7896391656699997
 20.7889393668844953  7.2014998437825426 6.7896391656699997
  0.0000000000000000  9.6019997917100568 6.7896391656699997
  2.7718585822512662  9.6019997917100568 6.7896391656699997
  5.5437171645025325  9.6019997917100568 6.7896391656699997
  8.3155757467537992  9.6019997917100568 6.7896391656699997
 11.0874343290050650  9.6019997917100568 6.7896391656699997
 13.8592929112563308  9.6019997917100568 6.7896391656699997
 16.6311514935075984  9.6019997917100568 6.7896391656699997
 19.4030100757588642  9.6019997917100568 6.7896391656699997
  1.3859292911256331 12.0024997396375710 6.7896391656699997
  4.1577878733768996 12.0024997396375710 6.7896391656699997
  6.9296464556281654 12.0024997396375710 6.7896391656699997
  9.7015050378794321 12.0024997396375710 6.7896391656699997
 12.4733636201306979 12.0024997396375710 6.7896391656699997
 15.2452222023819637 12.0024997396375710 6.7896391656699997
 18.0170807846332295 12.0024997396375710 6.7896391656699997
 20.7889393668844953 12.0024997396375710 6.7896391656699997
  0.0000000000000000 14.4029996875650852 6.7896391656699997
  2.7718585822512662 14.4029996875650852 6.7896391656699997
  5.5437171645025325 14.4029996875650852 6.7896391656699997
  8.3155757467537992 14.4029996875650852 6.7896391656699997
 11.0874343290050650 14.4029996875650852 6.7896391656699997
 13.8592929112563308 14.4029996875650852 6.7896391656699997
 16.6311514935075984 14.4029996875650852 6.7896391656699997
 19.4030100757588642 14.4029996875650852 6.7896391656699997
  1.3859292911256331 16.8034996354925994 6.7896391656699997
  4.1577878733768996 16.8034996354925994 6.7896391656699997
  6.9296464556281654 16.8034996354925994 6.7896391656699997
  9.7015050378794321 16.8034996354925994 6.7896391656699997
 12.4733636201306979 16.8034996354925994 6.7896391656699997
 15.2452222023819637 16.8034996354925994 6.7896391656699997
 18.0170807846332295 16.8034996354925994 6.7896391656699997
 20.7889393668844953 16.8034996354925994 6.7896391656699997
